ITEM = _(1..70);
knapsack_n = 3;
capacities = [381, 395, 395];
profits = [30, 48, 48, 185, 567, 117, 115, 110, 477, 147, 63, 71, 99, 28, 114, 21, 34, 532, 63, 16, 83, 406, 15, 73, 22, 11, 583, 8, 24, 35, 17, 154, 211, 166, 29, 78, 13, 427, 329, 114, 39, 20, 403, 39, 205, 261, 38, 36, 352, 13, 310, 116, 107, 537, 39, 141, 613, 101, 149, 550, 184, 15, 32, 139, 28, 341, 169, 205, 583, 523];
weights = [9, 27, 24, 60, 38, 18, 33, 13, 42, 18, 20, 31, 27, 5, 33, 3, 7, 76, 27, 10, 31, 50, 7, 24, 3, 10, 86, 8, 4, 8, 5, 21, 48, 26, 9, 29, 9, 75, 50, 19, 12, 11, 81, 6, 85, 40, 3, 4, 62, 12, 66, 26, 18, 41, 3, 25, 58, 24, 28, 75, 38, 9, 10, 27, 4, 80, 35, 52, 76, 55];
